# Objective value = 2722.33
I_0_0 781
I_0_1 1051
I_0_2 1035
I_0_3 9.2399999999999977e+02
I_0_4 1009
I_0_5 908
I_0_6 1178
I_1_0 166
I_1_1 83
I_1_2 166
I_1_3 8.3000000000000014e+01
I_1_4 0
I_1_5 166
I_1_6 83
I_2_0 154
I_2_1 77
I_2_2 0
I_2_3 1.5400000000000006e+02
I_2_4 154
I_2_5 77
I_2_6 -8.5265128291212022e-14
I_3_0 100
I_3_1 50
I_3_2 2.8421709430404007e-14
I_3_3 9.9999999999999972e+01
I_3_4 1.0000000000000001e+02
I_3_5 5.0000000000000028e+01
I_3_6 2.8199664825478976e-14
I_4_0 62
I_4_1 31
I_4_2 62
I_4_3 3.0999999999999996e+01
I_4_4 0
I_4_5 62
I_4_6 3.0999999999999982e+01
I_5_0 29
I_5_1 0
I_5_2 29
I_5_3 0
I_5_4 29
I_5_5 29
I_5_6 0
q_1_0 0
q_1_1 166
q_1_2 0
q_1_3 0
q_1_4 249
q_1_5 0
q_2_0 0
q_2_1 -2.6645352591003757e-14
q_2_2 2.3100000000000006e+02
q_2_3 7.6999999999999972e+01
q_2_4 0
q_2_5 -8.5265128291212022e-14
q_3_0 0
q_3_1 0
q_3_2 1.4999999999999994e+02
q_3_3 5.0000000000000092e+01
q_3_4 0
q_3_5 0
q_4_0 0
q_4_1 62
q_4_2 0
q_4_3 0
q_4_4 93
q_4_5 0
q_5_0 0
q_5_1 58
q_5_2 0
q_5_3 58
q_5_4 29
q_5_5 0
y_0_0 0
y_0_1 1
y_0_2 1
y_0_3 1
y_0_4 1
y_0_5 -1.1102230246251565e-16
y_1_0 0
y_1_1 1
y_1_2 0
y_1_3 0
y_1_4 1
y_1_5 0
y_2_0 0
y_2_1 5.5511151231257827e-17
y_2_2 1
y_2_3 1
y_2_4 0
y_2_5 -1.1102230246251565e-15
y_3_0 0
y_3_1 -4.5796699765787707e-16
y_3_2 9.9999999999999967e-01
y_3_3 1
y_3_4 0
y_3_5 -4.4408920985006262e-16
y_4_0 0
y_4_1 1
y_4_2 0
y_4_3 0
y_4_4 1
y_4_5 0
y_5_0 0
y_5_1 1
y_5_2 0
y_5_3 1
y_5_4 1
y_5_5 0
x_0_1_0 0
x_0_1_1 0
x_0_1_2 0
x_0_1_3 0
x_0_1_4 0
x_0_1_5 0
x_0_2_0 0
x_0_2_1 0
x_0_2_2 1.0000000000000007e+00
x_0_2_3 6.6960326172704754e-16
x_0_2_4 0
x_0_2_5 -2.2204460492503131e-16
x_0_3_0 -5.5511151231257827e-17
x_0_3_1 0
x_0_3_2 0.999999999999999
x_0_3_3 1.0000000000000016e+00
x_0_3_4 0
x_0_3_5 0
x_0_4_0 0
x_0_4_1 1
x_0_4_2 0
x_0_4_3 0
x_0_4_4 1
x_0_4_5 0
x_0_5_0 0
x_0_5_1 1
x_0_5_2 0
x_0_5_3 1
x_0_5_4 1
x_0_5_5 0
x_1_2_0 0
x_1_2_1 0
x_1_2_2 0
x_1_2_3 0
x_1_2_4 0
x_1_2_5 0
x_1_3_0 0
x_1_3_1 0
x_1_3_2 0
x_1_3_3 0
x_1_3_4 0
x_1_3_5 0
x_1_4_0 0
x_1_4_1 1
x_1_4_2 0
x_1_4_3 0
x_1_4_4 1
x_1_4_5 0
x_1_5_0 0
x_1_5_1 1
x_1_5_2 0
x_1_5_3 0
x_1_5_4 1
x_1_5_5 0
x_2_3_0 0
x_2_3_1 0
x_2_3_2 9.9999999999999967e-01
x_2_3_3 9.9999999999999933e-01
x_2_3_4 0
x_2_3_5 -8.8817841970012523e-16
x_2_4_0 0
x_2_4_1 0
x_2_4_2 0
x_2_4_3 0
x_2_4_4 0
x_2_4_5 0
x_2_5_0 0
x_2_5_1 0
x_2_5_2 0
x_2_5_3 1
x_2_5_4 0
x_2_5_5 0
x_3_4_0 0
x_3_4_1 0
x_3_4_2 0
x_3_4_3 0
x_3_4_4 0
x_3_4_5 0
x_3_5_0 0
x_3_5_1 0
x_3_5_2 0
x_3_5_3 0
x_3_5_4 0
x_3_5_5 0
x_4_5_0 0
x_4_5_1 0
x_4_5_2 0
x_4_5_3 0
x_4_5_4 0
x_4_5_5 0
